p cnf 606 1860
28 0
-31 -61 0
-30 31 -61 0
30 31 61 0
-33 -62 0
33 61 -62 0
33 -61 62 0
-34 -63 0
34 62 -63 0
34 -62 63 0
-35 63 -64 0
-35 -63 64 0
35 64 0
-37 -65 0
37 64 -65 0
37 -64 65 0
-38 -66 0
38 65 -66 0
38 -65 66 0
-39 -67 0
39 66 -67 0
39 -66 67 0
-41 -68 0
41 67 -68 0
41 -67 68 0
-42 -69 0
42 68 -69 0
42 -68 69 0
-43 -70 0
43 69 -70 0
43 -69 70 0
-45 -71 0
45 70 -71 0
45 -70 71 0
-46 -72 0
46 71 -72 0
46 -71 72 0
-47 -73 0
47 72 -73 0
47 -72 73 0
-49 -74 0
49 73 -74 0
49 -73 74 0
-50 -75 0
50 74 -75 0
50 -74 75 0
-51 -76 0
51 75 -76 0
51 -75 76 0
-53 -77 0
53 76 -77 0
53 -76 77 0
-54 -78 0
54 77 -78 0
54 -77 78 0
-55 -79 0
55 78 -79 0
55 -78 79 0
-57 -80 0
57 79 -80 0
57 -79 80 0
-58 -81 0
58 80 -81 0
58 -80 81 0
-59 -82 0
59 81 -82 0
59 -81 82 0
29 -83 0
-30 -83 0
-31 -83 0
-33 -83 0
-34 -83 0
35 -83 0
-37 -83 0
-38 -83 0
-39 -83 0
-41 -83 0
-42 -83 0
-43 -83 0
-45 -83 0
-46 -83 0
-47 -83 0
-49 -83 0
-50 -83 0
-51 -83 0
-53 -83 0
-54 -83 0
-55 -83 0
-57 -83 0
-58 -83 0
-59 -83 0
-29 30 31 33 34 -35 37 38 39 41 42 43 45 46 47 49 50 51 53 54 55 57 58 59 83 0
82 84 0
-83 84 0
-82 83 -84 0
-26 84 -85 0
26 -84 -85 0
-26 -84 85 0
26 84 85 0
-85 0
26 -118 0
29 -118 0
-26 -29 118 0
26 -119 0
30 -119 0
-26 -30 119 0
26 -120 0
31 -120 0
-26 -31 120 0
26 -5 0
33 -5 0
-26 -33 5 0
26 -6 0
34 -6 0
-26 -34 6 0
26 -7 0
35 -7 0
-26 -35 7 0
26 -8 0
37 -8 0
-26 -37 8 0
26 -9 0
38 -9 0
-26 -38 9 0
26 -10 0
39 -10 0
-26 -39 10 0
26 -11 0
41 -11 0
-26 -41 11 0
26 -12 0
42 -12 0
-26 -42 12 0
26 -13 0
43 -13 0
-26 -43 13 0
26 -14 0
45 -14 0
-26 -45 14 0
26 -15 0
46 -15 0
-26 -46 15 0
26 -16 0
47 -16 0
-26 -47 16 0
26 -17 0
49 -17 0
-26 -49 17 0
26 -18 0
50 -18 0
-26 -50 18 0
26 -19 0
51 -19 0
-26 -51 19 0
26 -20 0
53 -20 0
-26 -53 20 0
26 -21 0
54 -21 0
-26 -54 21 0
26 -22 0
55 -22 0
-26 -55 22 0
26 -23 0
57 -23 0
-26 -57 23 0
26 -24 0
58 -24 0
-26 -58 24 0
26 -25 0
59 -25 0
-26 -59 25 0
-118 -121 0
-119 -121 0
118 119 121 0
118 119 -122 0
-118 -119 -122 0
-118 119 122 0
118 -119 122 0
121 -123 0
-120 -123 0
120 -121 123 0
120 -121 -124 0
-120 121 -124 0
120 121 124 0
-120 -121 124 0
123 -125 0
-5 -125 0
5 -123 125 0
5 -123 -126 0
-5 123 -126 0
5 123 126 0
-5 -123 126 0
125 -127 0
-6 -127 0
6 -125 127 0
6 -125 -128 0
-6 125 -128 0
6 125 128 0
-6 -125 128 0
127 -129 0
-7 -129 0
7 -127 129 0
7 -127 -130 0
-7 127 -130 0
7 127 130 0
-7 -127 130 0
129 -131 0
-8 -131 0
8 -129 131 0
8 -129 -132 0
-8 129 -132 0
8 129 132 0
-8 -129 132 0
131 -133 0
-9 -133 0
9 -131 133 0
9 -131 -134 0
-9 131 -134 0
9 131 134 0
-9 -131 134 0
133 -135 0
-10 -135 0
10 -133 135 0
10 -133 -136 0
-10 133 -136 0
10 133 136 0
-10 -133 136 0
135 -137 0
-11 -137 0
11 -135 137 0
11 -135 -138 0
-11 135 -138 0
11 135 138 0
-11 -135 138 0
137 -139 0
-12 -139 0
12 -137 139 0
12 -137 -140 0
-12 137 -140 0
12 137 140 0
-12 -137 140 0
139 -141 0
-13 -141 0
13 -139 141 0
13 -139 -142 0
-13 139 -142 0
13 139 142 0
-13 -139 142 0
141 -143 0
-14 -143 0
14 -141 143 0
14 -141 -144 0
-14 141 -144 0
14 141 144 0
-14 -141 144 0
143 -145 0
-15 -145 0
15 -143 145 0
15 -143 -146 0
-15 143 -146 0
15 143 146 0
-15 -143 146 0
145 -147 0
-16 -147 0
16 -145 147 0
16 -145 -148 0
-16 145 -148 0
16 145 148 0
-16 -145 148 0
147 -149 0
-17 -149 0
17 -147 149 0
17 -147 -150 0
-17 147 -150 0
17 147 150 0
-17 -147 150 0
149 -151 0
-18 -151 0
18 -149 151 0
18 -149 -152 0
-18 149 -152 0
18 149 152 0
-18 -149 152 0
151 -153 0
-19 -153 0
19 -151 153 0
19 -151 -154 0
-19 151 -154 0
19 151 154 0
-19 -151 154 0
153 -155 0
-20 -155 0
20 -153 155 0
20 -153 -156 0
-20 153 -156 0
20 153 156 0
-20 -153 156 0
155 -157 0
-21 -157 0
21 -155 157 0
21 -155 -158 0
-21 155 -158 0
21 155 158 0
-21 -155 158 0
157 -159 0
-22 -159 0
22 -157 159 0
22 -157 -160 0
-22 157 -160 0
22 157 160 0
-22 -157 160 0
159 -161 0
-23 -161 0
23 -159 161 0
23 -159 -162 0
-23 159 -162 0
23 159 162 0
-23 -159 162 0
161 -163 0
-24 -163 0
24 -161 163 0
24 -161 -164 0
-24 161 -164 0
24 161 164 0
-24 -161 164 0
163 -165 0
-25 -165 0
25 -163 165 0
25 -163 -166 0
-25 163 -166 0
25 163 166 0
-25 -163 166 0
-229 0
167 -231 0
170 -231 0
-167 -170 231 0
-167 -170 -232 0
167 170 -232 0
-167 170 232 0
167 -170 232 0
-169 -172 233 0
-169 -231 233 0
-172 -231 233 0
169 172 -233 0
169 231 -233 0
172 231 -233 0
169 -233 -234 0
172 -233 -234 0
231 -233 -234 0
-169 233 234 0
-172 233 234 0
-231 233 234 0
-169 -172 -231 234 0
169 172 231 -234 0
-171 -174 235 0
-171 -233 235 0
-174 -233 235 0
171 174 -235 0
171 233 -235 0
174 233 -235 0
171 -235 -236 0
174 -235 -236 0
233 -235 -236 0
-171 235 236 0
-174 235 236 0
-233 235 236 0
-171 -174 -233 236 0
171 174 233 -236 0
-173 -176 237 0
-173 -235 237 0
-176 -235 237 0
173 176 -237 0
173 235 -237 0
176 235 -237 0
173 -237 -238 0
176 -237 -238 0
235 -237 -238 0
-173 237 238 0
-176 237 238 0
-235 237 238 0
-173 -176 -235 238 0
173 176 235 -238 0
-175 -178 239 0
-175 -237 239 0
-178 -237 239 0
175 178 -239 0
175 237 -239 0
178 237 -239 0
175 -239 -240 0
178 -239 -240 0
237 -239 -240 0
-175 239 240 0
-178 239 240 0
-237 239 240 0
-175 -178 -237 240 0
175 178 237 -240 0
-177 -180 241 0
-177 -239 241 0
-180 -239 241 0
177 180 -241 0
177 239 -241 0
180 239 -241 0
177 -241 -242 0
180 -241 -242 0
239 -241 -242 0
-177 241 242 0
-180 241 242 0
-239 241 242 0
-177 -180 -239 242 0
177 180 239 -242 0
-179 -182 243 0
-179 -241 243 0
-182 -241 243 0
179 182 -243 0
179 241 -243 0
182 241 -243 0
179 -243 -244 0
182 -243 -244 0
241 -243 -244 0
-179 243 244 0
-182 243 244 0
-241 243 244 0
-179 -182 -241 244 0
179 182 241 -244 0
-181 -184 245 0
-181 -243 245 0
-184 -243 245 0
181 184 -245 0
181 243 -245 0
184 243 -245 0
181 -245 -246 0
184 -245 -246 0
243 -245 -246 0
-181 245 246 0
-184 245 246 0
-243 245 246 0
-181 -184 -243 246 0
181 184 243 -246 0
-183 -186 247 0
-183 -245 247 0
-186 -245 247 0
183 186 -247 0
183 245 -247 0
186 245 -247 0
183 -247 -248 0
186 -247 -248 0
245 -247 -248 0
-183 247 248 0
-186 247 248 0
-245 247 248 0
-183 -186 -245 248 0
183 186 245 -248 0
-185 -188 249 0
-185 -247 249 0
-188 -247 249 0
185 188 -249 0
185 247 -249 0
188 247 -249 0
185 -249 -250 0
188 -249 -250 0
247 -249 -250 0
-185 249 250 0
-188 249 250 0
-247 249 250 0
-185 -188 -247 250 0
185 188 247 -250 0
-187 -190 251 0
-187 -249 251 0
-190 -249 251 0
187 190 -251 0
187 249 -251 0
190 249 -251 0
187 -251 -252 0
190 -251 -252 0
249 -251 -252 0
-187 251 252 0
-190 251 252 0
-249 251 252 0
-187 -190 -249 252 0
187 190 249 -252 0
-189 -192 253 0
-189 -251 253 0
-192 -251 253 0
189 192 -253 0
189 251 -253 0
192 251 -253 0
189 -253 -254 0
192 -253 -254 0
251 -253 -254 0
-189 253 254 0
-192 253 254 0
-251 253 254 0
-189 -192 -251 254 0
189 192 251 -254 0
-191 -194 255 0
-191 -253 255 0
-194 -253 255 0
191 194 -255 0
191 253 -255 0
194 253 -255 0
191 -255 -256 0
194 -255 -256 0
253 -255 -256 0
-191 255 256 0
-194 255 256 0
-253 255 256 0
-191 -194 -253 256 0
191 194 253 -256 0
-193 -196 257 0
-193 -255 257 0
-196 -255 257 0
193 196 -257 0
193 255 -257 0
196 255 -257 0
193 -257 -258 0
196 -257 -258 0
255 -257 -258 0
-193 257 258 0
-196 257 258 0
-255 257 258 0
-193 -196 -255 258 0
193 196 255 -258 0
-195 -198 259 0
-195 -257 259 0
-198 -257 259 0
195 198 -259 0
195 257 -259 0
198 257 -259 0
195 -259 -260 0
198 -259 -260 0
257 -259 -260 0
-195 259 260 0
-198 259 260 0
-257 259 260 0
-195 -198 -257 260 0
195 198 257 -260 0
-197 -200 261 0
-197 -259 261 0
-200 -259 261 0
197 200 -261 0
197 259 -261 0
200 259 -261 0
197 -261 -262 0
200 -261 -262 0
259 -261 -262 0
-197 261 262 0
-200 261 262 0
-259 261 262 0
-197 -200 -259 262 0
197 200 259 -262 0
-199 -202 263 0
-199 -261 263 0
-202 -261 263 0
199 202 -263 0
199 261 -263 0
202 261 -263 0
199 -263 -264 0
202 -263 -264 0
261 -263 -264 0
-199 263 264 0
-202 263 264 0
-261 263 264 0
-199 -202 -261 264 0
199 202 261 -264 0
-201 -204 265 0
-201 -263 265 0
-204 -263 265 0
201 204 -265 0
201 263 -265 0
204 263 -265 0
201 -265 -266 0
204 -265 -266 0
263 -265 -266 0
-201 265 266 0
-204 265 266 0
-263 265 266 0
-201 -204 -263 266 0
201 204 263 -266 0
-203 -206 267 0
-203 -265 267 0
-206 -265 267 0
203 206 -267 0
203 265 -267 0
206 265 -267 0
203 -267 -268 0
206 -267 -268 0
265 -267 -268 0
-203 267 268 0
-206 267 268 0
-265 267 268 0
-203 -206 -265 268 0
203 206 265 -268 0
-205 -208 269 0
-205 -267 269 0
-208 -267 269 0
205 208 -269 0
205 267 -269 0
208 267 -269 0
205 -269 -270 0
208 -269 -270 0
267 -269 -270 0
-205 269 270 0
-208 269 270 0
-267 269 270 0
-205 -208 -267 270 0
205 208 267 -270 0
-207 -210 271 0
-207 -269 271 0
-210 -269 271 0
207 210 -271 0
207 269 -271 0
210 269 -271 0
207 -271 -272 0
210 -271 -272 0
269 -271 -272 0
-207 271 272 0
-210 271 272 0
-269 271 272 0
-207 -210 -269 272 0
207 210 269 -272 0
-209 -212 273 0
-209 -271 273 0
-212 -271 273 0
209 212 -273 0
209 271 -273 0
212 271 -273 0
209 -273 -274 0
212 -273 -274 0
271 -273 -274 0
-209 273 274 0
-212 273 274 0
-271 273 274 0
-209 -212 -271 274 0
209 212 271 -274 0
-211 -214 275 0
-211 -273 275 0
-214 -273 275 0
211 214 -275 0
211 273 -275 0
214 273 -275 0
211 -275 -276 0
214 -275 -276 0
273 -275 -276 0
-211 275 276 0
-214 275 276 0
-273 275 276 0
-211 -214 -273 276 0
211 214 273 -276 0
-213 -216 277 0
-213 -275 277 0
-216 -275 277 0
213 216 -277 0
213 275 -277 0
216 275 -277 0
213 -277 -278 0
216 -277 -278 0
275 -277 -278 0
-213 277 278 0
-216 277 278 0
-275 277 278 0
-213 -216 -275 278 0
213 216 275 -278 0
-215 -218 279 0
-215 -277 279 0
-218 -277 279 0
215 218 -279 0
215 277 -279 0
218 277 -279 0
215 -279 -280 0
218 -279 -280 0
277 -279 -280 0
-215 279 280 0
-218 279 280 0
-277 279 280 0
-215 -218 -277 280 0
215 218 277 -280 0
-217 -220 281 0
-217 -279 281 0
-220 -279 281 0
217 220 -281 0
217 279 -281 0
220 279 -281 0
217 -281 -282 0
220 -281 -282 0
279 -281 -282 0
-217 281 282 0
-220 281 282 0
-279 281 282 0
-217 -220 -279 282 0
217 220 279 -282 0
-219 -222 283 0
-219 -281 283 0
-222 -281 283 0
219 222 -283 0
219 281 -283 0
222 281 -283 0
219 -283 -284 0
222 -283 -284 0
281 -283 -284 0
-219 283 284 0
-222 283 284 0
-281 283 284 0
-219 -222 -281 284 0
219 222 281 -284 0
-221 -224 285 0
-221 -283 285 0
-224 -283 285 0
221 224 -285 0
221 283 -285 0
224 283 -285 0
221 -285 -286 0
224 -285 -286 0
283 -285 -286 0
-221 285 286 0
-224 285 286 0
-283 285 286 0
-221 -224 -283 286 0
221 224 283 -286 0
-223 -226 287 0
-223 -285 287 0
-226 -285 287 0
223 226 -287 0
223 285 -287 0
226 285 -287 0
223 -287 -288 0
226 -287 -288 0
285 -287 -288 0
-223 287 288 0
-226 287 288 0
-285 287 288 0
-223 -226 -285 288 0
223 226 285 -288 0
-225 -228 289 0
-225 -287 289 0
-228 -287 289 0
225 228 -289 0
225 287 -289 0
228 287 -289 0
225 -289 -290 0
228 -289 -290 0
287 -289 -290 0
-225 289 290 0
-228 289 290 0
-287 289 290 0
-225 -228 -287 290 0
225 228 287 -290 0
-227 -230 291 0
-227 -289 291 0
-230 -289 291 0
227 230 -291 0
227 289 -291 0
230 289 -291 0
227 -291 -292 0
230 -291 -292 0
289 -291 -292 0
-227 291 292 0
-230 291 292 0
-289 291 292 0
-227 -230 -289 292 0
227 230 289 -292 0
-291 0
-118 -168 -293 0
118 168 -293 0
118 -168 293 0
-118 168 293 0
-119 -232 -294 0
119 232 -294 0
119 -232 294 0
-119 232 294 0
-120 -234 -295 0
120 234 -295 0
120 -234 295 0
-120 234 295 0
-5 -238 -296 0
5 238 -296 0
5 -238 296 0
-5 238 296 0
-6 -240 -297 0
6 240 -297 0
6 -240 297 0
-6 240 297 0
-7 -242 -298 0
7 242 -298 0
7 -242 298 0
-7 242 298 0
-8 -246 -299 0
8 246 -299 0
8 -246 299 0
-8 246 299 0
-9 -248 -300 0
9 248 -300 0
9 -248 300 0
-9 248 300 0
-10 -250 -301 0
10 250 -301 0
10 -250 301 0
-10 250 301 0
-11 -254 -302 0
11 254 -302 0
11 -254 302 0
-11 254 302 0
-12 -256 -303 0
12 256 -303 0
12 -256 303 0
-12 256 303 0
-13 -258 -304 0
13 258 -304 0
13 -258 304 0
-13 258 304 0
-14 -262 -305 0
14 262 -305 0
14 -262 305 0
-14 262 305 0
-15 -264 -306 0
15 264 -306 0
15 -264 306 0
-15 264 306 0
-16 -266 -307 0
16 266 -307 0
16 -266 307 0
-16 266 307 0
-17 -270 -308 0
17 270 -308 0
17 -270 308 0
-17 270 308 0
-18 -272 -309 0
18 272 -309 0
18 -272 309 0
-18 272 309 0
-19 -274 -310 0
19 274 -310 0
19 -274 310 0
-19 274 310 0
-20 -278 -311 0
20 278 -311 0
20 -278 311 0
-20 278 311 0
-21 -280 -312 0
21 280 -312 0
21 -280 312 0
-21 280 312 0
-22 -282 -313 0
22 282 -313 0
22 -282 313 0
-22 282 313 0
-23 -286 -314 0
23 286 -314 0
23 -286 314 0
-23 286 314 0
-24 -288 -315 0
24 288 -315 0
24 -288 315 0
-24 288 315 0
-25 -290 -316 0
25 290 -316 0
25 -290 316 0
-25 290 316 0
-293 -317 0
-294 -317 0
-295 -317 0
-236 -317 0
-296 -317 0
-297 -317 0
-298 -317 0
-244 -317 0
-299 -317 0
-300 -317 0
-301 -317 0
-252 -317 0
-302 -317 0
-303 -317 0
-304 -317 0
-260 -317 0
-305 -317 0
-306 -317 0
-307 -317 0
-268 -317 0
-308 -317 0
-309 -317 0
-310 -317 0
-276 -317 0
-311 -317 0
-312 -317 0
-313 -317 0
-284 -317 0
-314 -317 0
-315 -317 0
-316 -317 0
-292 -317 0
236 244 252 260 268 276 284 292 293 294 295 296 297 298 299 300 301 302 303 304 305 306 307 308 309 310 311 312 313 314 315 316 317 0
317 0
170 172 -318 0
-170 172 318 0
-172 318 0
174 318 -319 0
174 -318 319 0
-174 319 0
176 319 -320 0
176 -319 320 0
-176 320 0
178 320 -321 0
178 -320 321 0
-178 321 0
180 321 -322 0
180 -321 322 0
-180 322 0
182 322 -323 0
182 -322 323 0
-182 323 0
184 323 -324 0
184 -323 324 0
-184 324 0
186 324 -325 0
186 -324 325 0
-186 325 0
188 325 -326 0
188 -325 326 0
-188 326 0
190 326 -327 0
190 -326 327 0
-190 327 0
192 327 -328 0
192 -327 328 0
-192 328 0
194 328 -329 0
194 -328 329 0
-194 329 0
196 329 -330 0
196 -329 330 0
-196 330 0
198 330 -331 0
198 -330 331 0
-198 331 0
200 331 -332 0
200 -331 332 0
-200 332 0
202 332 -333 0
202 -332 333 0
-202 333 0
204 333 -334 0
204 -333 334 0
-204 334 0
206 334 -335 0
206 -334 335 0
-206 335 0
208 335 -336 0
208 -335 336 0
-208 336 0
210 336 -337 0
210 -336 337 0
-210 337 0
212 337 -338 0
212 -337 338 0
-212 338 0
214 338 -339 0
214 -338 339 0
-214 339 0
216 339 -340 0
216 -339 340 0
-216 340 0
218 340 -341 0
218 -340 341 0
-218 341 0
220 341 -342 0
220 -341 342 0
-220 342 0
222 342 -343 0
222 -342 343 0
-222 343 0
224 343 -344 0
224 -343 344 0
-224 344 0
226 344 -345 0
226 -344 345 0
-226 345 0
228 345 -346 0
228 -345 346 0
-228 346 0
230 346 -347 0
230 -346 347 0
-230 347 0
-347 0
-118 167 -348 0
118 167 348 0
-118 -167 348 0
118 -167 348 0
-119 169 -349 0
119 169 348 -349 0
119 169 -348 349 0
-119 -169 348 -349 0
-119 -169 -348 349 0
119 -169 349 0
-120 171 -350 0
120 171 349 -350 0
120 171 -349 350 0
-120 -171 349 -350 0
-120 -171 -349 350 0
120 -171 350 0
173 350 -351 0
173 -350 351 0
-173 351 0
-5 175 -352 0
5 175 351 -352 0
5 175 -351 352 0
-5 -175 351 -352 0
-5 -175 -351 352 0
5 -175 352 0
-6 177 -353 0
6 177 352 -353 0
6 177 -352 353 0
-6 -177 352 -353 0
-6 -177 -352 353 0
6 -177 353 0
-7 179 -354 0
7 179 353 -354 0
7 179 -353 354 0
-7 -179 353 -354 0
-7 -179 -353 354 0
7 -179 354 0
181 354 -355 0
181 -354 355 0
-181 355 0
-8 183 -356 0
8 183 355 -356 0
8 183 -355 356 0
-8 -183 355 -356 0
-8 -183 -355 356 0
8 -183 356 0
-9 185 -357 0
9 185 356 -357 0
9 185 -356 357 0
-9 -185 356 -357 0
-9 -185 -356 357 0
9 -185 357 0
-10 187 -358 0
10 187 357 -358 0
10 187 -357 358 0
-10 -187 357 -358 0
-10 -187 -357 358 0
10 -187 358 0
189 358 -359 0
189 -358 359 0
-189 359 0
-11 191 -360 0
11 191 359 -360 0
11 191 -359 360 0
-11 -191 359 -360 0
-11 -191 -359 360 0
11 -191 360 0
-12 193 -361 0
12 193 360 -361 0
12 193 -360 361 0
-12 -193 360 -361 0
-12 -193 -360 361 0
12 -193 361 0
-13 195 -362 0
13 195 361 -362 0
13 195 -361 362 0
-13 -195 361 -362 0
-13 -195 -361 362 0
13 -195 362 0
197 362 -363 0
197 -362 363 0
-197 363 0
-14 199 -364 0
14 199 363 -364 0
14 199 -363 364 0
-14 -199 363 -364 0
-14 -199 -363 364 0
14 -199 364 0
-15 201 -365 0
15 201 364 -365 0
15 201 -364 365 0
-15 -201 364 -365 0
-15 -201 -364 365 0
15 -201 365 0
-16 203 -366 0
16 203 365 -366 0
16 203 -365 366 0
-16 -203 365 -366 0
-16 -203 -365 366 0
16 -203 366 0
205 366 -367 0
205 -366 367 0
-205 367 0
-17 207 -368 0
17 207 367 -368 0
17 207 -367 368 0
-17 -207 367 -368 0
-17 -207 -367 368 0
17 -207 368 0
-18 209 -369 0
18 209 368 -369 0
18 209 -368 369 0
-18 -209 368 -369 0
-18 -209 -368 369 0
18 -209 369 0
-19 211 -370 0
19 211 369 -370 0
19 211 -369 370 0
-19 -211 369 -370 0
-19 -211 -369 370 0
19 -211 370 0
213 370 -371 0
213 -370 371 0
-213 371 0
-20 215 -372 0
20 215 371 -372 0
20 215 -371 372 0
-20 -215 371 -372 0
-20 -215 -371 372 0
20 -215 372 0
-21 217 -373 0
21 217 372 -373 0
21 217 -372 373 0
-21 -217 372 -373 0
-21 -217 -372 373 0
21 -217 373 0
-22 219 -374 0
22 219 373 -374 0
22 219 -373 374 0
-22 -219 373 -374 0
-22 -219 -373 374 0
22 -219 374 0
221 374 -375 0
221 -374 375 0
-221 375 0
-23 223 -376 0
23 223 375 -376 0
23 223 -375 376 0
-23 -223 375 -376 0
-23 -223 -375 376 0
23 -223 376 0
-24 225 -377 0
24 225 376 -377 0
24 225 -376 377 0
-24 -225 376 -377 0
-24 -225 -376 377 0
24 -225 377 0
-25 227 -378 0
25 227 377 -378 0
25 227 -377 378 0
-25 -227 377 -378 0
-25 -227 -377 378 0
25 -227 378 0
229 378 -379 0
229 -378 379 0
-229 379 0
-118 -167 -380 0
118 167 -380 0
118 -167 380 0
-118 167 380 0
-119 -169 -381 0
119 169 -381 0
119 -169 381 0
-119 169 381 0
-120 -171 -382 0
120 171 -382 0
120 -171 382 0
-120 171 382 0
-5 -175 -383 0
5 175 -383 0
5 -175 383 0
-5 175 383 0
-6 -177 -384 0
6 177 -384 0
6 -177 384 0
-6 177 384 0
-7 -179 -385 0
7 179 -385 0
7 -179 385 0
-7 179 385 0
-8 -183 -386 0
8 183 -386 0
8 -183 386 0
-8 183 386 0
-9 -185 -387 0
9 185 -387 0
9 -185 387 0
-9 185 387 0
-10 -187 -388 0
10 187 -388 0
10 -187 388 0
-10 187 388 0
-11 -191 -389 0
11 191 -389 0
11 -191 389 0
-11 191 389 0
-12 -193 -390 0
12 193 -390 0
12 -193 390 0
-12 193 390 0
-13 -195 -391 0
13 195 -391 0
13 -195 391 0
-13 195 391 0
-14 -199 -392 0
14 199 -392 0
14 -199 392 0
-14 199 392 0
-15 -201 -393 0
15 201 -393 0
15 -201 393 0
-15 201 393 0
-16 -203 -394 0
16 203 -394 0
16 -203 394 0
-16 203 394 0
-17 -207 -395 0
17 207 -395 0
17 -207 395 0
-17 207 395 0
-18 -209 -396 0
18 209 -396 0
18 -209 396 0
-18 209 396 0
-19 -211 -397 0
19 211 -397 0
19 -211 397 0
-19 211 397 0
-20 -215 -398 0
20 215 -398 0
20 -215 398 0
-20 215 398 0
-21 -217 -399 0
21 217 -399 0
21 -217 399 0
-21 217 399 0
-22 -219 -400 0
22 219 -400 0
22 -219 400 0
-22 219 400 0
-23 -223 -401 0
23 223 -401 0
23 -223 401 0
-23 223 401 0
-24 -225 -402 0
24 225 -402 0
24 -225 402 0
-24 225 402 0
-25 -227 -403 0
25 227 -403 0
25 -227 403 0
-25 227 403 0
-380 -404 0
-381 -404 0
-382 -404 0
-173 -404 0
-383 -404 0
-384 -404 0
-385 -404 0
-181 -404 0
-386 -404 0
-387 -404 0
-388 -404 0
-189 -404 0
-389 -404 0
-390 -404 0
-391 -404 0
-197 -404 0
-392 -404 0
-393 -404 0
-394 -404 0
-205 -404 0
-395 -404 0
-396 -404 0
-397 -404 0
-213 -404 0
-398 -404 0
-399 -404 0
-400 -404 0
-221 -404 0
-401 -404 0
-402 -404 0
-403 -404 0
-229 -404 0
173 181 189 197 205 213 221 229 380 381 382 383 384 385 386 387 388 389 390 391 392 393 394 395 396 397 398 399 400 401 402 403 404 0
379 405 0
-404 405 0
-379 404 -405 0
405 0
-167 -406 0
-169 -406 0
167 169 406 0
167 169 -407 0
-167 -169 -407 0
-167 169 407 0
167 -169 407 0
406 -408 0
-171 -408 0
171 -406 408 0
171 -406 -409 0
-171 406 -409 0
171 406 409 0
-171 -406 409 0
408 -410 0
-173 -410 0
173 -408 410 0
173 -408 -411 0
-173 408 -411 0
173 408 411 0
-173 -408 411 0
410 -412 0
-175 -412 0
175 -410 412 0
175 -410 -413 0
-175 410 -413 0
175 410 413 0
-175 -410 413 0
412 -414 0
-177 -414 0
177 -412 414 0
177 -412 -415 0
-177 412 -415 0
177 412 415 0
-177 -412 415 0
414 -416 0
-179 -416 0
179 -414 416 0
179 -414 -417 0
-179 414 -417 0
179 414 417 0
-179 -414 417 0
416 -418 0
-181 -418 0
181 -416 418 0
181 -416 -419 0
-181 416 -419 0
181 416 419 0
-181 -416 419 0
418 -420 0
-183 -420 0
183 -418 420 0
183 -418 -421 0
-183 418 -421 0
183 418 421 0
-183 -418 421 0
420 -422 0
-185 -422 0
185 -420 422 0
185 -420 -423 0
-185 420 -423 0
185 420 423 0
-185 -420 423 0
422 -424 0
-187 -424 0
187 -422 424 0
187 -422 -425 0
-187 422 -425 0
187 422 425 0
-187 -422 425 0
424 -426 0
-189 -426 0
189 -424 426 0
189 -424 -427 0
-189 424 -427 0
189 424 427 0
-189 -424 427 0
426 -428 0
-191 -428 0
191 -426 428 0
191 -426 -429 0
-191 426 -429 0
191 426 429 0
-191 -426 429 0
428 -430 0
-193 -430 0
193 -428 430 0
193 -428 -431 0
-193 428 -431 0
193 428 431 0
-193 -428 431 0
430 -432 0
-195 -432 0
195 -430 432 0
195 -430 -433 0
-195 430 -433 0
195 430 433 0
-195 -430 433 0
432 -434 0
-197 -434 0
197 -432 434 0
197 -432 -435 0
-197 432 -435 0
197 432 435 0
-197 -432 435 0
434 -436 0
-199 -436 0
199 -434 436 0
199 -434 -437 0
-199 434 -437 0
199 434 437 0
-199 -434 437 0
436 -438 0
-201 -438 0
201 -436 438 0
201 -436 -439 0
-201 436 -439 0
201 436 439 0
-201 -436 439 0
438 -440 0
-203 -440 0
203 -438 440 0
203 -438 -441 0
-203 438 -441 0
203 438 441 0
-203 -438 441 0
440 -442 0
-205 -442 0
205 -440 442 0
205 -440 -443 0
-205 440 -443 0
205 440 443 0
-205 -440 443 0
442 -444 0
-207 -444 0
207 -442 444 0
207 -442 -445 0
-207 442 -445 0
207 442 445 0
-207 -442 445 0
444 -446 0
-209 -446 0
209 -444 446 0
209 -444 -447 0
-209 444 -447 0
209 444 447 0
-209 -444 447 0
446 -448 0
-211 -448 0
211 -446 448 0
211 -446 -449 0
-211 446 -449 0
211 446 449 0
-211 -446 449 0
448 -450 0
-213 -450 0
213 -448 450 0
213 -448 -451 0
-213 448 -451 0
213 448 451 0
-213 -448 451 0
450 -452 0
-215 -452 0
215 -450 452 0
215 -450 -453 0
-215 450 -453 0
215 450 453 0
-215 -450 453 0
452 -454 0
-217 -454 0
217 -452 454 0
217 -452 -455 0
-217 452 -455 0
217 452 455 0
-217 -452 455 0
454 -456 0
-219 -456 0
219 -454 456 0
219 -454 -457 0
-219 454 -457 0
219 454 457 0
-219 -454 457 0
456 -458 0
-221 -458 0
221 -456 458 0
221 -456 -459 0
-221 456 -459 0
221 456 459 0
-221 -456 459 0
458 -460 0
-223 -460 0
223 -458 460 0
223 -458 -461 0
-223 458 -461 0
223 458 461 0
-223 -458 461 0
460 -462 0
-225 -462 0
225 -460 462 0
225 -460 -463 0
-225 460 -463 0
225 460 463 0
-225 -460 463 0
462 -464 0
-227 -464 0
227 -462 464 0
227 -462 -465 0
-227 462 -465 0
227 462 465 0
-227 -462 465 0
464 -466 0
-229 -466 0
229 -464 466 0
229 -464 -467 0
-229 464 -467 0
229 464 467 0
-229 -464 467 0
-168 -468 0
-170 -468 0
168 170 468 0
168 170 -469 0
-168 -170 -469 0
-168 170 469 0
168 -170 469 0
468 -470 0
-172 -470 0
172 -468 470 0
172 -468 -471 0
-172 468 -471 0
172 468 471 0
-172 -468 471 0
470 -472 0
-174 -472 0
174 -470 472 0
174 -470 -473 0
-174 470 -473 0
174 470 473 0
-174 -470 473 0
472 -474 0
-176 -474 0
176 -472 474 0
176 -472 -475 0
-176 472 -475 0
176 472 475 0
-176 -472 475 0
474 -476 0
-178 -476 0
178 -474 476 0
178 -474 -477 0
-178 474 -477 0
178 474 477 0
-178 -474 477 0
476 -478 0
-180 -478 0
180 -476 478 0
180 -476 -479 0
-180 476 -479 0
180 476 479 0
-180 -476 479 0
478 -480 0
-182 -480 0
182 -478 480 0
182 -478 -481 0
-182 478 -481 0
182 478 481 0
-182 -478 481 0
480 -482 0
-184 -482 0
184 -480 482 0
184 -480 -483 0
-184 480 -483 0
184 480 483 0
-184 -480 483 0
482 -484 0
-186 -484 0
186 -482 484 0
186 -482 -485 0
-186 482 -485 0
186 482 485 0
-186 -482 485 0
484 -486 0
-188 -486 0
188 -484 486 0
188 -484 -487 0
-188 484 -487 0
188 484 487 0
-188 -484 487 0
486 -488 0
-190 -488 0
190 -486 488 0
190 -486 -489 0
-190 486 -489 0
190 486 489 0
-190 -486 489 0
488 -490 0
-192 -490 0
192 -488 490 0
192 -488 -491 0
-192 488 -491 0
192 488 491 0
-192 -488 491 0
490 -492 0
-194 -492 0
194 -490 492 0
194 -490 -493 0
-194 490 -493 0
194 490 493 0
-194 -490 493 0
492 -494 0
-196 -494 0
196 -492 494 0
196 -492 -495 0
-196 492 -495 0
196 492 495 0
-196 -492 495 0
494 -496 0
-198 -496 0
198 -494 496 0
198 -494 -497 0
-198 494 -497 0
198 494 497 0
-198 -494 497 0
496 -498 0
-200 -498 0
200 -496 498 0
200 -496 -499 0
-200 496 -499 0
200 496 499 0
-200 -496 499 0
498 -500 0
-202 -500 0
202 -498 500 0
202 -498 -501 0
-202 498 -501 0
202 498 501 0
-202 -498 501 0
500 -502 0
-204 -502 0
204 -500 502 0
204 -500 -503 0
-204 500 -503 0
204 500 503 0
-204 -500 503 0
502 -504 0
-206 -504 0
206 -502 504 0
206 -502 -505 0
-206 502 -505 0
206 502 505 0
-206 -502 505 0
504 -506 0
-208 -506 0
208 -504 506 0
208 -504 -507 0
-208 504 -507 0
208 504 507 0
-208 -504 507 0
506 -508 0
-210 -508 0
210 -506 508 0
210 -506 -509 0
-210 506 -509 0
210 506 509 0
-210 -506 509 0
508 -510 0
-212 -510 0
212 -508 510 0
212 -508 -511 0
-212 508 -511 0
212 508 511 0
-212 -508 511 0
510 -512 0
-214 -512 0
214 -510 512 0
214 -510 -513 0
-214 510 -513 0
214 510 513 0
-214 -510 513 0
512 -514 0
-216 -514 0
216 -512 514 0
216 -512 -515 0
-216 512 -515 0
216 512 515 0
-216 -512 515 0
514 -516 0
-218 -516 0
218 -514 516 0
218 -514 -517 0
-218 514 -517 0
218 514 517 0
-218 -514 517 0
516 -518 0
-220 -518 0
220 -516 518 0
220 -516 -519 0
-220 516 -519 0
220 516 519 0
-220 -516 519 0
518 -520 0
-222 -520 0
222 -518 520 0
222 -518 -521 0
-222 518 -521 0
222 518 521 0
-222 -518 521 0
520 -522 0
-224 -522 0
224 -520 522 0
224 -520 -523 0
-224 520 -523 0
224 520 523 0
-224 -520 523 0
522 -524 0
-226 -524 0
226 -522 524 0
226 -522 -525 0
-226 522 -525 0
226 522 525 0
-226 -522 525 0
524 -526 0
-228 -526 0
228 -524 526 0
228 -524 -527 0
-228 524 -527 0
228 524 527 0
-228 -524 527 0
526 -528 0
-230 -528 0
230 -526 528 0
230 -526 -529 0
-230 526 -529 0
230 526 529 0
-230 -526 529 0
-168 -530 0
-170 -530 0
-172 -530 0
-174 -530 0
-176 -530 0
-178 -530 0
-180 -530 0
-182 -530 0
-184 -530 0
-186 -530 0
-188 -530 0
-190 -530 0
-192 -530 0
-194 -530 0
-196 -530 0
-198 -530 0
-200 -530 0
-202 -530 0
-204 -530 0
-206 -530 0
-208 -530 0
-210 -530 0
-212 -530 0
-214 -530 0
-216 -530 0
-218 -530 0
-220 -530 0
-222 -530 0
-224 -530 0
-226 -530 0
-228 -530 0
-230 -530 0
168 170 172 174 176 178 180 182 184 186 188 190 192 194 196 198 200 202 204 206 208 210 212 214 216 218 220 222 224 226 228 230 530 0
-27 -530 -531 0
27 530 -531 0
-27 530 531 0
27 -530 531 0
-531 0
119 -532 0
118 -532 0
-118 -119 532 0
-118 -119 -533 0
118 119 -533 0
118 -119 533 0
-118 119 533 0
120 -534 0
532 -534 0
-120 -532 534 0
-120 -532 -535 0
120 532 -535 0
-120 532 535 0
120 -532 535 0
27 -118 1 0
27 118 -1 0
-27 118 1 0
-27 -118 -1 0
27 -119 2 0
27 119 -2 0
-27 -533 2 0
-27 533 -2 0
27 -120 3 0
27 120 -3 0
-27 -535 3 0
-27 535 -3 0
27 -4 0
534 -4 0
-27 -534 4 0
29 -568 0
-29 568 0
30 -569 0
-30 569 0
31 -570 0
-31 570 0
32 -571 0
-32 571 0
33 -572 0
-33 572 0
34 -573 0
-34 573 0
35 -574 0
-35 574 0
36 -575 0
-36 575 0
37 -576 0
-37 576 0
38 -577 0
-38 577 0
39 -578 0
-39 578 0
40 -579 0
-40 579 0
41 -580 0
-41 580 0
42 -581 0
-42 581 0
43 -582 0
-43 582 0
44 -583 0
-44 583 0
45 -584 0
-45 584 0
46 -585 0
-46 585 0
47 -586 0
-47 586 0
48 -587 0
-48 587 0
49 -588 0
-49 588 0
50 -589 0
-50 589 0
51 -590 0
-51 590 0
52 -591 0
-52 591 0
53 -592 0
-53 592 0
54 -593 0
-54 593 0
55 -594 0
-55 594 0
56 -595 0
-56 595 0
57 -596 0
-57 596 0
58 -597 0
-58 597 0
59 -598 0
-59 598 0
60 -599 0
-60 599 0
-600 -602 -604 0
600 602 -604 0
-600 602 604 0
600 -602 604 0
-601 -603 -605 0
601 603 -605 0
-601 603 605 0
601 -603 605 0
-604 -606 0
-605 -606 0
604 605 606 0
-28 606 0
28 -606 0
c __CPROVER_malloc_is_new_array#1 FALSE
c goto_symex::\guard#1 26
c goto_symex::\guard#2 27
c symex::io::0 568 569 570 571 572 573 574 575 576 577 578 579 580 581 582 583 584 585 586 587 588 589 590 591 592 593 594 595 596 597 598 599
c illustrative_example::1::O!0@1#7 1 2 3 4 5 6 7 FALSE 8 9 10 FALSE 11 12 13 FALSE 14 15 16 FALSE 17 18 19 FALSE 20 21 22 FALSE 23 24 25 FALSE
c illustrative_example::1::O!0@1#1 86 87 88 89 90 91 92 93 94 95 96 97 98 99 100 101 102 103 104 105 106 107 108 109 110 111 112 113 114 115 116 117
c illustrative_example::S!0@1#1 29 30 31 32 33 34 35 36 37 38 39 40 41 42 43 44 45 46 47 48 49 50 51 52 53 54 55 56 57 58 59 60
c __CPROVER_malloc_object#1 FALSE FALSE FALSE FALSE FALSE FALSE FALSE FALSE FALSE FALSE FALSE FALSE FALSE FALSE FALSE FALSE FALSE FALSE FALSE FALSE FALSE FALSE FALSE FALSE FALSE FALSE FALSE FALSE FALSE FALSE FALSE FALSE
c _start::S!0#1 29 30 31 32 33 34 35 36 37 38 39 40 41 42 43 44 45 46 47 48 49 50 51 52 53 54 55 56 57 58 59 60
c illustrative_example::S!0@1#2 29 30 31 FALSE 33 34 35 FALSE 37 38 39 FALSE 41 42 43 FALSE 45 46 47 FALSE 49 50 51 FALSE 53 54 55 FALSE 57 58 59 FALSE
c __CPROVER_deallocated#1 FALSE FALSE FALSE FALSE FALSE FALSE FALSE FALSE FALSE FALSE FALSE FALSE FALSE FALSE FALSE FALSE FALSE FALSE FALSE FALSE FALSE FALSE FALSE FALSE FALSE FALSE FALSE FALSE FALSE FALSE FALSE FALSE
c illustrative_example::1::O!0@1#2 29 30 31 FALSE 33 34 35 FALSE 37 38 39 FALSE 41 42 43 FALSE 45 46 47 FALSE 49 50 51 FALSE 53 54 55 FALSE 57 58 59 FALSE
c __CPROVER_malloc_size#1 FALSE FALSE FALSE FALSE FALSE FALSE FALSE FALSE FALSE FALSE FALSE FALSE FALSE FALSE FALSE FALSE FALSE FALSE FALSE FALSE FALSE FALSE FALSE FALSE FALSE FALSE FALSE FALSE FALSE FALSE FALSE FALSE
c illustrative_example::1::__return_value!0@1#1 536 537 538 539 540 541 542 543 544 545 546 547 548 549 550 551 552 553 554 555 556 557 558 559 560 561 562 563 564 565 566 567
c __CPROVER_dead_object#1 FALSE FALSE FALSE FALSE FALSE FALSE FALSE FALSE FALSE FALSE FALSE FALSE FALSE FALSE FALSE FALSE FALSE FALSE FALSE FALSE FALSE FALSE FALSE FALSE FALSE FALSE FALSE FALSE FALSE FALSE FALSE FALSE
c illustrative_example::1::O!0@1#3 86 87 88 89 90 91 92 93 94 95 96 97 98 99 100 101 102 103 104 105 106 107 108 109 110 111 112 113 114 115 116 117
c __CPROVER_memory_leak#1 FALSE FALSE FALSE FALSE FALSE FALSE FALSE FALSE FALSE FALSE FALSE FALSE FALSE FALSE FALSE FALSE FALSE FALSE FALSE FALSE FALSE FALSE FALSE FALSE FALSE FALSE FALSE FALSE FALSE FALSE FALSE FALSE
c illustrative_example::1::O!0@1#4 FALSE FALSE FALSE FALSE FALSE FALSE FALSE FALSE FALSE FALSE FALSE FALSE FALSE FALSE FALSE FALSE FALSE FALSE FALSE FALSE FALSE FALSE FALSE FALSE FALSE FALSE FALSE FALSE FALSE FALSE FALSE FALSE
c __CPROVER_next_thread_id#1 FALSE FALSE FALSE FALSE FALSE FALSE FALSE FALSE FALSE FALSE FALSE FALSE FALSE FALSE FALSE FALSE FALSE FALSE FALSE FALSE FALSE FALSE FALSE FALSE FALSE FALSE FALSE FALSE FALSE FALSE FALSE FALSE
c illustrative_example::1::O!0@1#5 118 119 120 FALSE 5 6 7 FALSE 8 9 10 FALSE 11 12 13 FALSE 14 15 16 FALSE 17 18 19 FALSE 20 21 22 FALSE 23 24 25 FALSE
c __CPROVER_pipe_count#1 FALSE FALSE FALSE FALSE FALSE FALSE FALSE FALSE FALSE FALSE FALSE FALSE FALSE FALSE FALSE FALSE FALSE FALSE FALSE FALSE FALSE FALSE FALSE FALSE FALSE FALSE FALSE FALSE FALSE FALSE FALSE FALSE
c illustrative_example::1::O!0@1#6 -118 533 535 534 5 6 7 FALSE 8 9 10 FALSE 11 12 13 FALSE 14 15 16 FALSE 17 18 19 FALSE 20 21 22 FALSE 23 24 25 FALSE
c __CPROVER_rounding_mode!0#1 FALSE FALSE FALSE FALSE FALSE FALSE FALSE FALSE FALSE FALSE FALSE FALSE FALSE FALSE FALSE FALSE FALSE FALSE FALSE FALSE FALSE FALSE FALSE FALSE FALSE FALSE FALSE FALSE FALSE FALSE FALSE FALSE
c illustrative_example::1::__return_value!0@1#2 1 2 3 4 5 6 7 FALSE 8 9 10 FALSE 11 12 13 FALSE 14 15 16 FALSE 17 18 19 FALSE 20 21 22 FALSE 23 24 25 FALSE
c __CPROVER_thread_id!0#1 FALSE FALSE FALSE FALSE FALSE FALSE FALSE FALSE FALSE FALSE FALSE FALSE FALSE FALSE FALSE FALSE FALSE FALSE FALSE FALSE FALSE FALSE FALSE FALSE FALSE FALSE FALSE FALSE FALSE FALSE FALSE FALSE
c ind 1 2 3 4 5 6 7 8 9 10 0
c ind 11 12 13 14 15 16 17 18 19 20 0
c ind 21 22 23 24 25 0
cr 1 2 3 4 5 6 7 8 9 10 11 12 13 14 15 16 17 18 19 20 21 22 23 24 25
